p tw 144 26641 2 
1 73 
1 76 
1 77 
1 80 
1 82 
1 83 
1 86 
1 88 
1 90 
1 92 
1 93 
1 95 
1 98 
1 99 
1 102 
1 104 
1 106 
1 107 
1 110 
1 112 
1 113 
1 116 
1 117 
1 120 
1 121 
1 124 
1 125 
1 127 
1 130 
1 131 
1 133 
1 136 
1 137 
1 140 
1 141 
1 143 
2 74 
2 75 
2 78 
2 79 
2 81 
2 84 
2 85 
2 87 
2 89 
2 91 
2 94 
2 96 
2 97 
2 100 
2 101 
2 103 
2 105 
2 108 
2 109 
2 111 
2 114 
2 115 
2 118 
2 119 
2 122 
2 123 
2 126 
2 128 
2 129 
2 132 
2 134 
2 135 
2 138 
2 139 
2 142 
2 144 
3 4 
3 73 
3 75 
3 77 
3 80 
3 82 
3 84 
3 86 
3 88 
3 89 
3 91 
3 93 
3 96 
3 97 
3 100 
3 101 
3 103 
3 105 
3 108 
3 109 
3 112 
3 114 
3 116 
3 117 
3 120 
3 122 
3 124 
3 125 
3 127 
3 130 
3 131 
3 133 
3 136 
3 138 
3 139 
3 142 
3 144 
4 74 
4 76 
4 78 
4 79 
4 81 
4 83 
4 85 
4 87 
4 90 
4 92 
4 94 
4 95 
4 98 
4 99 
4 102 
4 104 
4 106 
4 107 
4 110 
4 111 
4 113 
4 115 
4 118 
4 119 
4 121 
4 123 
4 126 
4 128 
4 129 
4 132 
4 134 
4 135 
4 137 
4 140 
4 141 
4 143 
5 6 
5 74 
5 75 
5 77 
5 79 
5 82 
5 83 
5 85 
5 87 
5 89 
5 92 
5 93 
5 95 
5 97 
5 99 
5 101 
5 103 
5 105 
5 107 
5 110 
5 112 
5 113 
5 116 
5 118 
5 119 
5 121 
5 123 
5 125 
5 127 
5 129 
5 132 
5 133 
5 136 
5 138 
5 139 
5 142 
5 143 
6 73 
6 76 
6 78 
6 80 
6 81 
6 84 
6 86 
6 88 
6 90 
6 91 
6 94 
6 96 
6 98 
6 100 
6 102 
6 104 
6 106 
6 108 
6 109 
6 111 
6 114 
6 115 
6 117 
6 120 
6 122 
6 124 
6 126 
6 128 
6 130 
6 131 
6 134 
6 135 
6 137 
6 140 
6 141 
6 144 
7 8 
7 74 
7 75 
7 77 
7 79 
7 82 
7 84 
7 86 
7 88 
7 90 
7 91 
7 94 
7 96 
7 98 
7 99 
7 101 
7 104 
7 105 
7 108 
7 109 
7 111 
7 114 
7 116 
7 118 
7 120 
7 121 
7 123 
7 125 
7 127 
7 129 
7 132 
7 133 
7 135 
7 137 
7 140 
7 141 
7 143 
8 73 
8 76 
8 78 
8 80 
8 81 
8 83 
8 85 
8 87 
8 89 
8 92 
8 93 
8 95 
8 97 
8 100 
8 102 
8 103 
8 106 
8 107 
8 110 
8 112 
8 113 
8 115 
8 117 
8 119 
8 122 
8 124 
8 126 
8 128 
8 130 
8 131 
8 134 
8 136 
8 138 
8 139 
8 142 
8 144 
9 10 
9 74 
9 76 
9 78 
9 80 
9 82 
9 84 
9 85 
9 87 
9 90 
9 91 
9 94 
9 96 
9 97 
9 100 
9 102 
9 103 
9 106 
9 107 
9 109 
9 112 
9 114 
9 116 
9 117 
9 119 
9 121 
9 123 
9 126 
9 127 
9 130 
9 132 
9 133 
9 136 
9 137 
9 139 
9 141 
9 143 
10 73 
10 75 
10 77 
10 79 
10 81 
10 83 
10 86 
10 88 
10 89 
10 92 
10 93 
10 95 
10 98 
10 99 
10 101 
10 104 
10 105 
10 108 
10 110 
10 111 
10 113 
10 115 
10 118 
10 120 
10 122 
10 124 
10 125 
10 128 
10 129 
10 131 
10 134 
10 135 
10 138 
10 140 
10 142 
10 144 
11 12 
11 74 
11 75 
11 78 
11 80 
11 81 
11 83 
11 85 
11 88 
11 89 
11 91 
11 94 
11 96 
11 98 
11 100 
11 101 
11 103 
11 106 
11 108 
11 110 
11 112 
11 113 
11 116 
11 117 
11 119 
11 121 
11 124 
11 125 
11 127 
11 129 
11 131 
11 134 
11 135 
11 138 
11 140 
11 141 
11 143 
12 73 
12 76 
12 77 
12 79 
12 82 
12 84 
12 86 
12 87 
12 90 
12 92 
12 93 
12 95 
12 97 
12 99 
12 102 
12 104 
12 105 
12 107 
12 109 
12 111 
12 114 
12 115 
12 118 
12 120 
12 122 
12 123 
12 126 
12 128 
12 130 
12 132 
12 133 
12 136 
12 137 
12 139 
12 142 
12 144 
13 14 
13 73 
13 76 
13 77 
13 79 
13 81 
13 84 
13 86 
13 87 
13 90 
13 91 
13 94 
13 96 
13 97 
13 100 
13 101 
13 104 
13 106 
13 107 
13 110 
13 111 
13 113 
13 116 
13 118 
13 119 
13 122 
13 124 
13 126 
13 127 
13 129 
13 131 
13 133 
13 136 
13 138 
13 140 
13 142 
13 143 
14 74 
14 75 
14 78 
14 80 
14 82 
14 83 
14 85 
14 88 
14 89 
14 92 
14 93 
14 95 
14 98 
14 99 
14 102 
14 103 
14 105 
14 108 
14 109 
14 112 
14 114 
14 115 
14 117 
14 120 
14 121 
14 123 
14 125 
14 128 
14 130 
14 132 
14 134 
14 135 
14 137 
14 139 
14 141 
14 144 
15 16 
15 74 
15 75 
15 77 
15 80 
15 82 
15 84 
15 85 
15 88 
15 89 
15 91 
15 94 
15 95 
15 98 
15 99 
15 101 
15 104 
15 106 
15 107 
15 110 
15 111 
15 114 
15 115 
15 117 
15 119 
15 121 
15 124 
15 126 
15 128 
15 129 
15 131 
15 133 
15 136 
15 137 
15 139 
15 142 
15 144 
16 73 
16 76 
16 78 
16 79 
16 81 
16 83 
16 86 
16 87 
16 90 
16 92 
16 93 
16 96 
16 97 
16 100 
16 102 
16 103 
16 105 
16 108 
16 109 
16 112 
16 113 
16 116 
16 118 
16 120 
16 122 
16 123 
16 125 
16 127 
16 130 
16 132 
16 134 
16 135 
16 138 
16 140 
16 141 
16 143 
17 18 
17 74 
17 76 
17 78 
17 80 
17 82 
17 84 
17 86 
17 87 
17 90 
17 92 
17 93 
17 95 
17 98 
17 100 
17 101 
17 103 
17 106 
17 108 
17 110 
17 112 
17 114 
17 116 
17 118 
17 120 
17 121 
17 124 
17 126 
17 128 
17 129 
17 132 
17 133 
17 135 
17 138 
17 140 
17 142 
17 144 
18 73 
18 75 
18 77 
18 79 
18 81 
18 83 
18 85 
18 88 
18 89 
18 91 
18 94 
18 96 
18 97 
18 99 
18 102 
18 104 
18 105 
18 107 
18 109 
18 111 
18 113 
18 115 
18 117 
18 119 
18 122 
18 123 
18 125 
18 127 
18 130 
18 131 
18 134 
18 136 
18 137 
18 139 
18 141 
18 143 
19 20 
19 74 
19 75 
19 78 
19 80 
19 81 
19 83 
19 86 
19 87 
19 90 
19 91 
19 93 
19 96 
19 98 
19 99 
19 101 
19 104 
19 105 
19 107 
19 109 
19 112 
19 113 
19 115 
19 117 
19 120 
19 122 
19 124 
19 126 
19 128 
19 129 
19 132 
19 133 
19 136 
19 138 
19 139 
19 141 
19 143 
20 73 
20 76 
20 77 
20 79 
20 82 
20 84 
20 85 
20 88 
20 89 
20 92 
20 94 
20 95 
20 97 
20 100 
20 102 
20 103 
20 106 
20 108 
20 110 
20 111 
20 114 
20 116 
20 118 
20 119 
20 121 
20 123 
20 125 
20 127 
20 130 
20 131 
20 134 
20 135 
20 137 
20 140 
20 142 
20 144 
21 22 
21 74 
21 76 
21 77 
21 80 
21 81 
21 83 
21 86 
21 87 
21 89 
21 91 
21 94 
21 95 
21 97 
21 99 
21 101 
21 103 
21 106 
21 108 
21 110 
21 111 
21 114 
21 116 
21 118 
21 120 
21 122 
21 124 
21 125 
21 128 
21 130 
21 132 
21 134 
21 136 
21 137 
21 139 
21 141 
21 143 
22 73 
22 75 
22 78 
22 79 
22 82 
22 84 
22 85 
22 88 
22 90 
22 92 
22 93 
22 96 
22 98 
22 100 
22 102 
22 104 
22 105 
22 107 
22 109 
22 112 
22 113 
22 115 
22 117 
22 119 
22 121 
22 123 
22 126 
22 127 
22 129 
22 131 
22 133 
22 135 
22 138 
22 140 
22 142 
22 144 
23 24 
23 74 
23 76 
23 77 
23 80 
23 81 
23 83 
23 85 
23 87 
23 89 
23 91 
23 93 
23 96 
23 98 
23 99 
23 102 
23 104 
23 106 
23 108 
23 109 
23 111 
23 113 
23 116 
23 118 
23 120 
23 121 
23 123 
23 126 
23 127 
23 130 
23 131 
23 133 
23 135 
23 138 
23 139 
23 142 
23 144 
24 73 
24 75 
24 78 
24 79 
24 82 
24 84 
24 86 
24 88 
24 90 
24 92 
24 94 
24 95 
24 97 
24 100 
24 101 
24 103 
24 105 
24 107 
24 110 
24 112 
24 114 
24 115 
24 117 
24 119 
24 122 
24 124 
24 125 
24 128 
24 129 
24 132 
24 134 
24 136 
24 137 
24 140 
24 141 
24 143 
25 26 
25 74 
25 75 
25 77 
25 80 
25 82 
25 83 
25 86 
25 87 
25 90 
25 91 
25 93 
25 95 
25 98 
25 100 
25 102 
25 103 
25 106 
25 107 
25 109 
25 111 
25 114 
25 115 
25 118 
25 119 
25 122 
25 123 
25 125 
25 127 
25 129 
25 131 
25 134 
25 136 
25 138 
25 140 
25 141 
25 144 
26 73 
26 76 
26 78 
26 79 
26 81 
26 84 
26 85 
26 88 
26 89 
26 92 
26 94 
26 96 
26 97 
26 99 
26 101 
26 104 
26 105 
26 108 
26 110 
26 112 
26 113 
26 116 
26 117 
26 120 
26 121 
26 124 
26 126 
26 128 
26 130 
26 132 
26 133 
26 135 
26 137 
26 139 
26 142 
26 143 
27 28 
27 73 
27 75 
27 78 
27 79 
27 81 
27 83 
27 86 
27 87 
27 89 
27 91 
27 94 
27 95 
27 98 
27 100 
27 102 
27 104 
27 106 
27 107 
27 110 
27 112 
27 114 
27 116 
27 117 
27 120 
27 122 
27 123 
27 125 
27 127 
27 129 
27 132 
27 133 
27 135 
27 137 
27 139 
27 142 
27 144 
28 74 
28 76 
28 77 
28 80 
28 82 
28 84 
28 85 
28 88 
28 90 
28 92 
28 93 
28 96 
28 97 
28 99 
28 101 
28 103 
28 105 
28 108 
28 109 
28 111 
28 113 
28 115 
28 118 
28 119 
28 121 
28 124 
28 126 
28 128 
28 130 
28 131 
28 134 
28 136 
28 138 
28 140 
28 141 
28 143 
29 30 
29 73 
29 76 
29 78 
29 80 
29 81 
29 84 
29 85 
29 88 
29 90 
29 92 
29 93 
29 95 
29 98 
29 99 
29 101 
29 104 
29 106 
29 108 
29 109 
29 111 
29 114 
29 116 
29 117 
29 119 
29 122 
29 123 
29 125 
29 127 
29 129 
29 132 
29 134 
29 136 
29 138 
29 139 
29 142 
29 143 
30 74 
30 75 
30 77 
30 79 
30 82 
30 83 
30 86 
30 87 
30 89 
30 91 
30 94 
30 96 
30 97 
30 100 
30 102 
30 103 
30 105 
30 107 
30 110 
30 112 
30 113 
30 115 
30 118 
30 120 
30 121 
30 124 
30 126 
30 128 
30 130 
30 131 
30 133 
30 135 
30 137 
30 140 
30 141 
30 144 
31 32 
31 74 
31 76 
31 78 
31 79 
31 81 
31 84 
31 85 
31 87 
31 89 
31 91 
31 93 
31 95 
31 98 
31 100 
31 101 
31 104 
31 105 
31 107 
31 109 
31 112 
31 114 
31 115 
31 118 
31 120 
31 121 
31 124 
31 125 
31 127 
31 130 
31 131 
31 134 
31 136 
31 137 
31 140 
31 142 
31 143 
32 73 
32 75 
32 77 
32 80 
32 82 
32 83 
32 86 
32 88 
32 90 
32 92 
32 94 
32 96 
32 97 
32 99 
32 102 
32 103 
32 106 
32 108 
32 110 
32 111 
32 113 
32 116 
32 117 
32 119 
32 122 
32 123 
32 126 
32 128 
32 129 
32 132 
32 133 
32 135 
32 138 
32 139 
32 141 
32 144 
33 34 
33 73 
33 76 
33 78 
33 79 
33 82 
33 83 
33 86 
33 88 
33 89 
33 91 
33 93 
33 96 
33 98 
33 100 
33 102 
33 103 
33 106 
33 108 
33 109 
33 111 
33 113 
33 115 
33 118 
33 119 
33 121 
33 124 
33 125 
33 128 
33 129 
33 132 
33 133 
33 136 
33 137 
33 139 
33 142 
33 143 
34 74 
34 75 
34 77 
34 80 
34 81 
34 84 
34 85 
34 87 
34 90 
34 92 
34 94 
34 95 
34 97 
34 99 
34 101 
34 104 
34 105 
34 107 
34 110 
34 112 
34 114 
34 116 
34 117 
34 120 
34 122 
34 123 
34 126 
34 127 
34 130 
34 131 
34 134 
34 135 
34 138 
34 140 
34 141 
34 144 
35 36 
35 73 
35 75 
35 77 
35 79 
35 81 
35 84 
35 85 
35 88 
35 89 
35 91 
35 93 
35 95 
35 98 
35 99 
35 102 
35 103 
35 106 
35 107 
35 109 
35 112 
35 114 
35 116 
35 118 
35 119 
35 122 
35 124 
35 126 
35 128 
35 130 
35 132 
35 133 
35 135 
35 138 
35 140 
35 141 
35 143 
36 74 
36 76 
36 78 
36 80 
36 82 
36 83 
36 86 
36 87 
36 90 
36 92 
36 94 
36 96 
36 97 
36 100 
36 101 
36 104 
36 105 
36 108 
36 110 
36 111 
36 113 
36 115 
36 117 
36 120 
36 121 
36 123 
36 125 
36 127 
36 129 
36 131 
36 134 
36 136 
36 137 
36 139 
36 142 
36 144 
37 38 
37 74 
37 75 
37 77 
37 79 
37 82 
37 83 
37 85 
37 88 
37 90 
37 92 
37 94 
37 96 
37 98 
37 100 
37 102 
37 104 
37 106 
37 108 
37 110 
37 112 
37 114 
37 115 
37 118 
37 120 
37 122 
37 124 
37 126 
37 127 
37 130 
37 132 
37 134 
37 136 
37 138 
37 139 
37 142 
37 143 
38 73 
38 76 
38 78 
38 80 
38 81 
38 84 
38 86 
38 87 
38 89 
38 91 
38 93 
38 95 
38 97 
38 99 
38 101 
38 103 
38 105 
38 107 
38 109 
38 111 
38 113 
38 116 
38 117 
38 119 
38 121 
38 123 
38 125 
38 128 
38 129 
38 131 
38 133 
38 135 
38 137 
38 140 
38 141 
38 144 
39 40 
39 73 
39 75 
39 77 
39 80 
39 81 
39 84 
39 86 
39 87 
39 89 
39 92 
39 93 
39 96 
39 98 
39 100 
39 102 
39 104 
39 105 
39 108 
39 110 
39 112 
39 114 
39 116 
39 118 
39 119 
39 121 
39 123 
39 126 
39 128 
39 129 
39 131 
39 134 
39 136 
39 137 
39 139 
39 141 
39 143 
40 74 
40 76 
40 78 
40 79 
40 82 
40 83 
40 85 
40 88 
40 90 
40 91 
40 94 
40 95 
40 97 
40 99 
40 101 
40 103 
40 106 
40 107 
40 109 
40 111 
40 113 
40 115 
40 117 
40 120 
40 122 
40 124 
40 125 
40 127 
40 130 
40 132 
40 133 
40 135 
40 138 
40 140 
40 142 
40 144 
41 42 
41 73 
41 75 
41 78 
41 80 
41 81 
41 83 
41 85 
41 88 
41 90 
41 91 
41 93 
41 96 
41 97 
41 99 
41 102 
41 103 
41 105 
41 107 
41 110 
41 111 
41 114 
41 116 
41 118 
41 120 
41 121 
41 124 
41 126 
41 127 
41 129 
41 132 
41 134 
41 136 
41 137 
41 140 
41 142 
41 144 
42 74 
42 76 
42 77 
42 79 
42 82 
42 84 
42 86 
42 87 
42 89 
42 92 
42 94 
42 95 
42 98 
42 100 
42 101 
42 104 
42 106 
42 108 
42 109 
42 112 
42 113 
42 115 
42 117 
42 119 
42 122 
42 123 
42 125 
42 128 
42 130 
42 131 
42 133 
42 135 
42 138 
42 139 
42 141 
42 143 
43 44 
43 73 
43 75 
43 78 
43 80 
43 82 
43 83 
43 85 
43 87 
43 89 
43 92 
43 94 
43 95 
43 98 
43 100 
43 101 
43 104 
43 105 
43 108 
43 109 
43 111 
43 113 
43 116 
43 118 
43 119 
43 122 
43 124 
43 126 
43 127 
43 130 
43 132 
43 133 
43 136 
43 137 
43 140 
43 141 
43 144 
44 74 
44 76 
44 77 
44 79 
44 81 
44 84 
44 86 
44 88 
44 90 
44 91 
44 93 
44 96 
44 97 
44 99 
44 102 
44 103 
44 106 
44 107 
44 110 
44 112 
44 114 
44 115 
44 117 
44 120 
44 121 
44 123 
44 125 
44 128 
44 129 
44 131 
44 134 
44 135 
44 138 
44 139 
44 142 
44 143 
45 46 
45 73 
45 76 
45 77 
45 79 
45 82 
45 84 
45 85 
45 87 
45 89 
45 91 
45 93 
45 96 
45 98 
45 99 
45 101 
45 103 
45 106 
45 108 
45 110 
45 112 
45 113 
45 115 
45 117 
45 120 
45 122 
45 123 
45 126 
45 127 
45 129 
45 132 
45 134 
45 136 
45 137 
45 140 
45 141 
45 144 
46 74 
46 75 
46 78 
46 80 
46 81 
46 83 
46 86 
46 88 
46 90 
46 92 
46 94 
46 95 
46 97 
46 100 
46 102 
46 104 
46 105 
46 107 
46 109 
46 111 
46 114 
46 116 
46 118 
46 119 
46 121 
46 124 
46 125 
46 128 
46 130 
46 131 
46 133 
46 135 
46 138 
46 139 
46 142 
46 143 
47 48 
47 73 
47 76 
47 77 
47 80 
47 82 
47 83 
47 85 
47 88 
47 90 
47 91 
47 94 
47 95 
47 98 
47 100 
47 101 
47 103 
47 105 
47 107 
47 109 
47 112 
47 113 
47 116 
47 118 
47 120 
47 122 
47 123 
47 126 
47 128 
47 129 
47 131 
47 134 
47 135 
47 137 
47 139 
47 142 
47 143 
48 74 
48 75 
48 78 
48 79 
48 81 
48 84 
48 86 
48 87 
48 89 
48 92 
48 93 
48 96 
48 97 
48 99 
48 102 
48 104 
48 106 
48 108 
48 110 
48 111 
48 114 
48 115 
48 117 
48 119 
48 121 
48 124 
48 125 
48 127 
48 130 
48 132 
48 133 
48 136 
48 138 
48 140 
48 141 
48 144 
49 50 
49 74 
49 76 
49 77 
49 79 
49 81 
49 83 
49 85 
49 87 
49 90 
49 92 
49 94 
49 96 
49 98 
49 99 
49 102 
49 103 
49 105 
49 108 
49 109 
49 112 
49 114 
49 116 
49 117 
49 119 
49 122 
49 124 
49 125 
49 128 
49 129 
49 131 
49 133 
49 136 
49 137 
49 140 
49 142 
49 144 
50 73 
50 75 
50 78 
50 80 
50 82 
50 84 
50 86 
50 88 
50 89 
50 91 
50 93 
50 95 
50 97 
50 100 
50 101 
50 104 
50 106 
50 107 
50 110 
50 111 
50 113 
50 115 
50 118 
50 120 
50 121 
50 123 
50 126 
50 127 
50 130 
50 132 
50 134 
50 135 
50 138 
50 139 
50 141 
50 143 
51 52 
51 74 
51 76 
51 78 
51 79 
51 82 
51 83 
51 85 
51 88 
51 89 
51 91 
51 93 
51 95 
51 97 
51 100 
51 102 
51 104 
51 105 
51 108 
51 110 
51 111 
51 114 
51 116 
51 117 
51 120 
51 122 
51 123 
51 126 
51 128 
51 129 
51 131 
51 133 
51 136 
51 138 
51 140 
51 141 
51 143 
52 73 
52 75 
52 77 
52 80 
52 81 
52 84 
52 86 
52 87 
52 90 
52 92 
52 94 
52 96 
52 98 
52 99 
52 101 
52 103 
52 106 
52 107 
52 109 
52 112 
52 113 
52 115 
52 118 
52 119 
52 121 
52 124 
52 125 
52 127 
52 130 
52 132 
52 134 
52 135 
52 137 
52 139 
52 142 
52 144 
53 54 
53 74 
53 76 
53 78 
53 80 
53 82 
53 84 
53 86 
53 88 
53 89 
53 91 
53 94 
53 96 
53 98 
53 99 
53 102 
53 104 
53 105 
53 107 
53 110 
53 112 
53 113 
53 116 
53 118 
53 119 
53 122 
53 123 
53 125 
53 128 
53 130 
53 132 
53 134 
53 136 
53 138 
53 140 
53 142 
53 144 
54 73 
54 75 
54 77 
54 79 
54 81 
54 83 
54 85 
54 87 
54 90 
54 92 
54 93 
54 95 
54 97 
54 100 
54 101 
54 103 
54 106 
54 108 
54 109 
54 111 
54 114 
54 115 
54 117 
54 120 
54 121 
54 124 
54 126 
54 127 
54 129 
54 131 
54 133 
54 135 
54 137 
54 139 
54 141 
54 143 
55 56 
55 74 
55 75 
55 78 
55 79 
55 82 
55 84 
55 86 
55 87 
55 90 
55 91 
55 93 
55 95 
55 98 
55 99 
55 102 
55 103 
55 105 
55 108 
55 110 
55 111 
55 113 
55 116 
55 117 
55 119 
55 122 
55 124 
55 126 
55 127 
55 130 
55 131 
55 134 
55 135 
55 137 
55 139 
55 142 
55 143 
56 73 
56 76 
56 77 
56 80 
56 81 
56 83 
56 85 
56 88 
56 89 
56 92 
56 94 
56 96 
56 97 
56 100 
56 101 
56 104 
56 106 
56 107 
56 109 
56 112 
56 114 
56 115 
56 118 
56 120 
56 121 
56 123 
56 125 
56 128 
56 129 
56 132 
56 133 
56 136 
56 138 
56 140 
56 141 
56 144 
57 58 
57 73 
57 75 
57 78 
57 79 
57 82 
57 84 
57 85 
57 87 
57 90 
57 91 
57 94 
57 95 
57 97 
57 99 
57 102 
57 104 
57 106 
57 108 
57 109 
57 112 
57 113 
57 116 
57 118 
57 120 
57 121 
57 124 
57 125 
57 128 
57 129 
57 131 
57 134 
57 136 
57 138 
57 139 
57 141 
57 144 
58 74 
58 76 
58 77 
58 80 
58 81 
58 83 
58 86 
58 88 
58 89 
58 92 
58 93 
58 96 
58 98 
58 100 
58 101 
58 103 
58 105 
58 107 
58 110 
58 111 
58 114 
58 115 
58 117 
58 119 
58 122 
58 123 
58 126 
58 127 
58 130 
58 132 
58 133 
58 135 
58 137 
58 140 
58 142 
58 143 
59 60 
59 73 
59 76 
59 77 
59 79 
59 82 
59 83 
59 85 
59 87 
59 90 
59 91 
59 93 
59 96 
59 98 
59 100 
59 101 
59 104 
59 105 
59 107 
59 110 
59 111 
59 114 
59 116 
59 117 
59 119 
59 121 
59 124 
59 125 
59 128 
59 130 
59 132 
59 134 
59 135 
59 138 
59 139 
59 141 
59 144 
60 74 
60 75 
60 78 
60 80 
60 81 
60 84 
60 86 
60 88 
60 89 
60 92 
60 94 
60 95 
60 97 
60 99 
60 102 
60 103 
60 106 
60 108 
60 109 
60 112 
60 113 
60 115 
60 118 
60 120 
60 122 
60 123 
60 126 
60 127 
60 129 
60 131 
60 133 
60 136 
60 137 
60 140 
60 142 
60 143 
61 62 
61 73 
61 75 
61 77 
61 80 
61 81 
61 84 
61 85 
61 87 
61 90 
61 91 
61 94 
61 95 
61 98 
61 100 
61 102 
61 103 
61 105 
61 108 
61 110 
61 111 
61 113 
61 115 
61 117 
61 120 
61 121 
61 123 
61 125 
61 128 
61 130 
61 132 
61 133 
61 136 
61 138 
61 140 
61 142 
61 143 
62 74 
62 76 
62 78 
62 79 
62 82 
62 83 
62 86 
62 88 
62 89 
62 92 
62 93 
62 96 
62 97 
62 99 
62 101 
62 104 
62 106 
62 107 
62 109 
62 112 
62 114 
62 116 
62 118 
62 119 
62 122 
62 124 
62 126 
62 127 
62 129 
62 131 
62 134 
62 135 
62 137 
62 139 
62 141 
62 144 
63 64 
63 74 
63 76 
63 77 
63 79 
63 81 
63 84 
63 86 
63 88 
63 89 
63 92 
63 94 
63 95 
63 98 
63 100 
63 102 
63 103 
63 105 
63 107 
63 109 
63 111 
63 113 
63 116 
63 117 
63 120 
63 121 
63 124 
63 126 
63 127 
63 129 
63 132 
63 134 
63 136 
63 138 
63 139 
63 141 
63 144 
64 73 
64 75 
64 78 
64 80 
64 82 
64 83 
64 85 
64 87 
64 90 
64 91 
64 93 
64 96 
64 97 
64 99 
64 101 
64 104 
64 106 
64 108 
64 110 
64 112 
64 114 
64 115 
64 118 
64 119 
64 122 
64 123 
64 125 
64 128 
64 130 
64 131 
64 133 
64 135 
64 137 
64 140 
64 142 
64 143 
65 66 
65 73 
65 76 
65 78 
65 79 
65 81 
65 83 
65 86 
65 88 
65 90 
65 91 
65 94 
65 95 
65 98 
65 99 
65 101 
65 103 
65 105 
65 108 
65 110 
65 112 
65 114 
65 115 
65 118 
65 119 
65 121 
65 123 
65 126 
65 127 
65 130 
65 131 
65 133 
65 136 
65 138 
65 139 
65 141 
65 144 
66 74 
66 75 
66 77 
66 80 
66 82 
66 84 
66 85 
66 87 
66 89 
66 92 
66 93 
66 96 
66 97 
66 100 
66 102 
66 104 
66 106 
66 107 
66 109 
66 111 
66 113 
66 116 
66 117 
66 120 
66 122 
66 124 
66 125 
66 128 
66 129 
66 132 
66 134 
66 135 
66 137 
66 140 
66 142 
66 143 
67 68 
67 73 
67 75 
67 78 
67 79 
67 82 
67 83 
67 86 
67 87 
67 89 
67 92 
67 94 
67 96 
67 98 
67 99 
67 101 
67 103 
67 106 
67 107 
67 109 
67 111 
67 114 
67 116 
67 117 
67 120 
67 121 
67 123 
67 126 
67 128 
67 130 
67 131 
67 134 
67 136 
67 138 
67 140 
67 142 
67 143 
68 74 
68 76 
68 77 
68 80 
68 81 
68 84 
68 85 
68 88 
68 90 
68 91 
68 93 
68 95 
68 97 
68 100 
68 102 
68 104 
68 105 
68 108 
68 110 
68 112 
68 113 
68 115 
68 118 
68 119 
68 122 
68 124 
68 125 
68 127 
68 129 
68 132 
68 133 
68 135 
68 137 
68 139 
68 141 
68 144 
69 70 
69 74 
69 75 
69 78 
69 79 
69 81 
69 84 
69 85 
69 88 
69 90 
69 92 
69 93 
69 96 
69 98 
69 100 
69 101 
69 103 
69 106 
69 107 
69 110 
69 111 
69 113 
69 116 
69 118 
69 120 
69 122 
69 123 
69 125 
69 128 
69 130 
69 131 
69 133 
69 136 
69 137 
69 139 
69 141 
69 144 
70 73 
70 76 
70 77 
70 80 
70 82 
70 83 
70 86 
70 87 
70 89 
70 91 
70 94 
70 95 
70 97 
70 99 
70 102 
70 104 
70 105 
70 108 
70 109 
70 112 
70 114 
70 115 
70 117 
70 119 
70 121 
70 124 
70 126 
70 127 
70 129 
70 132 
70 134 
70 135 
70 138 
70 140 
70 142 
70 143 
71 72 
71 74 
71 75 
71 77 
71 79 
71 81 
71 83 
71 86 
71 88 
71 90 
71 91 
71 93 
71 95 
71 97 
71 100 
71 101 
71 104 
71 106 
71 108 
71 109 
71 112 
71 113 
71 116 
71 117 
71 119 
71 121 
71 123 
71 126 
71 128 
71 130 
71 132 
71 134 
71 136 
71 137 
71 140 
71 142 
71 144 
72 73 
72 76 
72 78 
72 80 
72 82 
72 84 
72 85 
72 87 
72 89 
72 92 
72 94 
72 96 
72 98 
72 99 
72 102 
72 103 
72 105 
72 107 
72 110 
72 111 
72 114 
72 115 
72 118 
72 120 
72 122 
72 124 
72 125 
72 127 
72 129 
72 131 
72 133 
72 135 
72 138 
72 139 
72 141 
72 143 
73 74 
75 76 
77 78 
79 80 
81 82 
83 84 
85 86 
87 88 
89 90 
91 92 
93 94 
95 96 
97 98 
99 100 
101 102 
103 104 
105 106 
107 108 
109 110 
111 112 
113 114 
115 116 
117 118 
119 120 
121 122 
123 124 
125 126 
127 128 
129 130 
131 132 
133 134 
135 136 
137 138 
139 140 
141 142 
143 144 
